# LAMMPS input script for a simple Lennard-Jones system

# Initialize simulation
units           lj
dimension       3
boundary        p p p
atom_style      atomic

# Define simulation box
lattice         fcc 0.8442
region          box block 0 10 0 10 0 10
create_box      1 box
create_atoms    1 box
mass            1 1.0

# Set potentials
pair_style      lj/cut 2.5
pair_coeff      1 1 1.0 1.0 2.5

# Set up the integrator
timestep        0.005
thermo          100
thermo_style    custom step temp etotal pe ke

# Run the simulation
velocity        all create 1.0 87287 loop geom
fix             1 all nve
run             1000